c Random generated cnf formula, satisfiable: true
p cnf 10 50
-7 1 -9 0
6 3 -7 0
10 -8 -5 0
9 3 -4 0
-4 6 -2 0
6 1 2 0
2 5 -4 0
3 6 -4 0
-2 -5 3 0
-7 4 -8 0
3 2 -7 0
-1 2 -7 0
-4 -7 3 0
4 -5 -6 0
-10 -6 -2 0
7 9 8 0
3 1 4 0
-2 5 -10 0
-1 -8 4 0
9 2 10 0
-6 10 -2 0
3 4 2 0
2 -9 -1 0
9 -8 -4 0
-1 -2 9 0
6 -8 -3 0
9 -4 -3 0
-7 10 5 0
10 -8 -7 0
2 -4 -6 0
-3 1 -4 0
1 -5 2 0
-7 4 10 0
-6 8 1 0
-6 -9 5 0
-10 -5 2 0
-9 7 -5 0
-5 9 6 0
-1 2 -9 0
-9 -1 -3 0
4 9 -7 0
-3 9 -1 0
2 -7 -1 0
2 -9 10 0
8 4 -7 0
1 2 -10 0
-1 10 -6 0
-8 -2 1 0
-8 -1 -7 0
5 10 9 0
